c A SAT instance generated from a 3-CNF formula that had 32 clauses and 8 variables
p cnf 8 32
-8 5 -1 0
-4 2 -1 0
-5 -8 4 0
7 4 -5 0
2 -4 7 0
-3 -4 -6 0
-5 4 -7 0
4 8 -3 0
1 -4 3 0
7 -2 -5 0
6 7 -5 0
3 -2 5 0
3 4 -8 0
4 2 6 0
8 5 3 0
-1 8 -5 0
3 -6 -7 0
6 -1 7 0
-3 5 -6 0
8 -2 6 0
-3 -5 6 0
7 -2 1 0
-4 -2 -5 0
5 7 4 0
-2 -6 4 0
-6 -8 -7 0
7 -4 3 0
-4 7 2 0
-4 -5 6 0
4 -3 1 0
-6 8 -3 0
-1 -4 5 0
